AgNb_sv/317 - (317) - alphaGa [A4] (317) ortho Fmmm
  0.989391862306720     
     2.4693597493292501   -5.2942144839050602   -0.0000001355079102
     2.4693484176408700    5.2942092116733948    0.0000001045906608
     0.0000000222780566    0.0000001030186057    2.9525903706267194
   Ag
     4
Direct
  0.8679461546953614  0.1320538214079552  0.9999984549719698
  0.1320538454307505  0.8679461785007696  0.0000015450170626
  0.3679461546855294  0.6320538214367160  0.5000015941648819
  0.6320538451883588  0.3679461786545593  0.4999984058460926
 
  0.00000000E+00  0.00000000E+00  0.00000000E+00
  0.00000000E+00  0.00000000E+00  0.00000000E+00
  0.00000000E+00  0.00000000E+00  0.00000000E+00
  0.00000000E+00  0.00000000E+00  0.00000000E+00
