# Ag
1.000000
      7.40271219        0.00000000        0.00000000
     -0.58623580        2.88717811        0.00000000
     -0.58623651        1.38407190        2.53380000
 Mg
     3
Cartesian
      7.45485039        0.04950924        0.04495897
     16.41171091        3.37120014        2.01551002
      4.72824785        0.99894782        0.60826311
