# Ag with diamond structure oriented X= 
   1.00000000000000     
     5.5311574893884252    0.0000001294106693   -0.0000002621556748
     0.0000001368545547    5.5311577097852949    0.0000002510183246
    -0.0000003137601266    0.0000002418875816    5.5311577557787430
   Ag
     7
Direct
  0.5000000521002516  0.5000000400641188  0.0000000467237388
  0.0000000784731076  0.4999999102370771  0.4999999979446960
  0.4999999238359124 -0.0000000152374294  0.4999999897317499
  0.1769164122182065  0.1769164677139518  0.1769163003126132
  0.8230836179971163  0.8230836254773827  0.1769165280897272
  0.8230835425423838  0.1769163984987910  0.8230835647659717
  0.1769163745625967  0.8230835714298251  0.8230835718777278
 
  0.00000000E+00  0.00000000E+00  0.00000000E+00
  0.00000000E+00  0.00000000E+00  0.00000000E+00
  0.00000000E+00  0.00000000E+00  0.00000000E+00
  0.00000000E+00  0.00000000E+00  0.00000000E+00
  0.00000000E+00  0.00000000E+00  0.00000000E+00
  0.00000000E+00  0.00000000E+00  0.00000000E+00
  0.00000000E+00  0.00000000E+00  0.00000000E+00
