#  Simple cubic Ag oriented X=[100] Y=[ 
   1.00000000000000     
     5.4834556399999999    0.0000000000000000    0.0000000000000000
     0.0000000000000000    5.4834556299999999    0.0000000000000000
     0.0000000000000000   -0.0000000100000000    5.4834556399999999
   Ag
     8
Direct
  0.5000000000000000  0.0000000009118324  0.5000000000000000
  0.0000000000000000  0.0000000009118324  0.5000000000000000
  0.5000000000000000  0.5000000000000000  0.5000000000000000
  0.0000000000000000  0.5000000000000000  0.4999999981763352
  0.5000000000000000  0.0000000000000000  0.0000000000000000
  0.9999999981763352  0.0000000000000000  0.9999999981763352
  0.4999999981763352  0.5000000009118324  0.9999999981763352
  0.9999999981763351  0.5000000009051808  0.9963526631173796
 
  0.00000000E+00  0.00000000E+00  0.00000000E+00
  0.00000000E+00  0.00000000E+00  0.00000000E+00
  0.00000000E+00  0.00000000E+00  0.00000000E+00
  0.00000000E+00  0.00000000E+00  0.00000000E+00
  0.00000000E+00  0.00000000E+00  0.00000000E+00
  0.00000000E+00  0.00000000E+00  0.00000000E+00
  0.00000000E+00  0.00000000E+00  0.00000000E+00
  0.00000000E+00  0.00000000E+00  0.00000000E+00
