# Fcc Ag oriented X=[100] Y=[010] Z=[001
   1.00000000000000     
     8.6120983636183741    0.3763763359671561    0.0000000000000000
     0.3763763359671561    8.6120983636183741    0.0000000000000000
     0.0000000000000000    0.0000000000000000    8.1908957309273376
   Ag
    33
Direct
  0.2946423652467719  0.2946423652467719 -0.0000000000000000
  0.0044313730464790  0.2600369063702191  0.2702605162020378
  0.2600369063702191  0.0044313730464790  0.2702605162020378
  0.5000000000000000  0.0000000000000000 -0.0000000000000000
  0.7631941796320182  0.2368058203679818 -0.0000000000000000
  0.5099936765667438  0.2522958637442602  0.2545030246841217
  0.7399630936297807 -0.0044313730464790  0.2702605162020378
  0.0000000000000000  0.5000000000000000 -0.0000000000000000
  0.2368058203679818  0.7631941796320182 -0.0000000000000000
 -0.0044313730464790  0.7399630936297807  0.2702605162020378
  0.2522958637442602  0.5099936765667438  0.2545030246841217
  0.5000000000000000  0.5000000000000000 -0.0000000000000000
  0.7053576347532284  0.7053576347532284 -0.0000000000000000
  0.4900063234332566  0.7477041362557396  0.2545030246841217
  0.7477041362557396  0.4900063234332566  0.2545030246841217
  0.0000000000000000  0.0000000000000000  0.5000000000000000
  0.2614052833086549  0.2614052833086549  0.5000000000000000
  0.0044313730464790  0.2600369063702191  0.7297394837979625
  0.2600369063702191  0.0044313730464790  0.7297394837979625
  0.5000000000000000  0.0000000000000000  0.5000000000000000
  0.7506663061689290  0.2493336938310709  0.5000000000000000
  0.5099936765667438  0.2522958637442602  0.7454969753158783
  0.7399630936297807 -0.0044313730464790  0.7297394837979625
  0.0000000000000000  0.5000000000000000  0.5000000000000000
  0.2493336938310709  0.7506663061689290  0.5000000000000000
 -0.0044313730464790  0.7399630936297807  0.7297394837979625
  0.2522958637442602  0.5099936765667438  0.7454969753158783
  0.5000000000000000  0.5000000000000000  0.5000000000000000
  0.7385947166913451  0.7385947166913451  0.5000000000000000
  0.4900063234332567  0.7477041362557396  0.7454969753158783
  0.7477041362557396  0.4900063234332566  0.7454969753158783
  0.0970907215139284  0.0970907215139284 -0.0000000000000000
  0.9029092784860717  0.9029092784860717 -0.0000000000000000
 
  0.00000000E+00  0.00000000E+00  0.00000000E+00
  0.00000000E+00  0.00000000E+00  0.00000000E+00
  0.00000000E+00  0.00000000E+00  0.00000000E+00
  0.00000000E+00  0.00000000E+00  0.00000000E+00
  0.00000000E+00  0.00000000E+00  0.00000000E+00
  0.00000000E+00  0.00000000E+00  0.00000000E+00
  0.00000000E+00  0.00000000E+00  0.00000000E+00
  0.00000000E+00  0.00000000E+00  0.00000000E+00
  0.00000000E+00  0.00000000E+00  0.00000000E+00
  0.00000000E+00  0.00000000E+00  0.00000000E+00
  0.00000000E+00  0.00000000E+00  0.00000000E+00
  0.00000000E+00  0.00000000E+00  0.00000000E+00
  0.00000000E+00  0.00000000E+00  0.00000000E+00
  0.00000000E+00  0.00000000E+00  0.00000000E+00
  0.00000000E+00  0.00000000E+00  0.00000000E+00
  0.00000000E+00  0.00000000E+00  0.00000000E+00
  0.00000000E+00  0.00000000E+00  0.00000000E+00
  0.00000000E+00  0.00000000E+00  0.00000000E+00
  0.00000000E+00  0.00000000E+00  0.00000000E+00
  0.00000000E+00  0.00000000E+00  0.00000000E+00
  0.00000000E+00  0.00000000E+00  0.00000000E+00
  0.00000000E+00  0.00000000E+00  0.00000000E+00
  0.00000000E+00  0.00000000E+00  0.00000000E+00
  0.00000000E+00  0.00000000E+00  0.00000000E+00
  0.00000000E+00  0.00000000E+00  0.00000000E+00
  0.00000000E+00  0.00000000E+00  0.00000000E+00
  0.00000000E+00  0.00000000E+00  0.00000000E+00
  0.00000000E+00  0.00000000E+00  0.00000000E+00
  0.00000000E+00  0.00000000E+00  0.00000000E+00
  0.00000000E+00  0.00000000E+00  0.00000000E+00
  0.00000000E+00  0.00000000E+00  0.00000000E+00
  0.00000000E+00  0.00000000E+00  0.00000000E+00
  0.00000000E+00  0.00000000E+00  0.00000000E+00
