# Ag with diamond structure oriented X= 
   1.00000000000000     
     6.1957295787127764    0.0000000021499132   -0.0000000041961639
     0.0000000033742338    6.1957295961077641   -0.0000000009337418
    -0.0000000035767418   -0.0000000003255671    6.1957295763036315
   Ag
     8
Direct
  0.9999999982704221  0.0000000018162874  0.0000000005537730
  0.5000000008766482  0.4999999963135978  0.9999999973016929
 -0.0000000006053464  0.4999999989238442  0.5000000027864420
  0.5000000017942187  0.0000000017535242  0.4999999991334925
  0.2500000007401709  0.2499999990974062  0.2499999973423779
  0.7500000005052190  0.7500000028613427  0.2499999990460999
  0.7499999987682651  0.2500000002681567  0.7500000029887595
  0.2499999996503952  0.7499999989658408  0.7500000008473624
 
  0.00000000E+00  0.00000000E+00  0.00000000E+00
  0.00000000E+00  0.00000000E+00  0.00000000E+00
  0.00000000E+00  0.00000000E+00  0.00000000E+00
  0.00000000E+00  0.00000000E+00  0.00000000E+00
  0.00000000E+00  0.00000000E+00  0.00000000E+00
  0.00000000E+00  0.00000000E+00  0.00000000E+00
  0.00000000E+00  0.00000000E+00  0.00000000E+00
  0.00000000E+00  0.00000000E+00  0.00000000E+00
