# Ag                                    
   1.00000000000000     
    14.3382461359085411   -2.9245377619194239   -0.0077018243735472
    14.3382474207202861    2.9245614383209650   -0.0076968975966426
    13.7444262828975212    0.0000127864841158    5.0228546467249178
   Ag
    23
Direct
  0.9777309741762075  0.0103069962036104  0.0191082820801871
  0.9777335780382729  0.0103164093703509  0.5190985583207181
  0.9777365195936922  0.5103121191387785  0.0191001001692734
  0.9777325991997904  0.5103066251895372  0.5191078516926977
  0.4777318865802160  0.0103140049088309  0.0191028682458473
  0.4777304547773755  0.0103086285597203  0.5191080236903955
  0.4777304734321428  0.5103064897572352  0.0191100875695476
  0.3672125797710629  0.3997859230801827  0.4085831344860160
  0.3665824823537895  0.3991670345152298  0.9051383575629550
  0.3665810897424011  0.8963524040495148  0.4079544884549365
  0.3666708039612467  0.8993543561873587  0.9081522057602491
  0.8637643914031051  0.3991684221567521  0.4079543777216506
  0.8667813200751409  0.3992444317091176  0.9081517298072651
  0.8667814932074825  0.8993547933844380  0.4080410224782373
  0.8662791279159022  0.8988642389522408  0.9076509842329163
  0.0891860081474035  0.1217597693824327  0.1305535817590909
  0.0886803318152970  0.1212630109063086  0.6301732472200264
  0.0886805478634186  0.6213751292477483  0.1300607771079768
  0.0917020152137809  0.6214594273021402  0.6302529793674940
  0.5887934508312030  0.1212624600153984  0.1300607667666997
  0.5888855316409541  0.1242738944101023  0.6302543807840542
  0.5888857499502242  0.6214582464549113  0.1330706812439611
  0.5882523607954470  0.6208347083012871  0.6296323833175831
 
  0.00000000E+00  0.00000000E+00  0.00000000E+00
  0.00000000E+00  0.00000000E+00  0.00000000E+00
  0.00000000E+00  0.00000000E+00  0.00000000E+00
  0.00000000E+00  0.00000000E+00  0.00000000E+00
  0.00000000E+00  0.00000000E+00  0.00000000E+00
  0.00000000E+00  0.00000000E+00  0.00000000E+00
  0.00000000E+00  0.00000000E+00  0.00000000E+00
  0.00000000E+00  0.00000000E+00  0.00000000E+00
  0.00000000E+00  0.00000000E+00  0.00000000E+00
  0.00000000E+00  0.00000000E+00  0.00000000E+00
  0.00000000E+00  0.00000000E+00  0.00000000E+00
  0.00000000E+00  0.00000000E+00  0.00000000E+00
  0.00000000E+00  0.00000000E+00  0.00000000E+00
  0.00000000E+00  0.00000000E+00  0.00000000E+00
  0.00000000E+00  0.00000000E+00  0.00000000E+00
  0.00000000E+00  0.00000000E+00  0.00000000E+00
  0.00000000E+00  0.00000000E+00  0.00000000E+00
  0.00000000E+00  0.00000000E+00  0.00000000E+00
  0.00000000E+00  0.00000000E+00  0.00000000E+00
  0.00000000E+00  0.00000000E+00  0.00000000E+00
  0.00000000E+00  0.00000000E+00  0.00000000E+00
  0.00000000E+00  0.00000000E+00  0.00000000E+00
  0.00000000E+00  0.00000000E+00  0.00000000E+00
