# AgNb_sv/317 - (317) - alphaGa [A4] (31
   1.00000000000000     
     4.8863288799999998  -10.4761054599999994   -0.0000002700000000
     4.8863064600000001   10.4760950200000007    0.0000002100000000
     0.0000000400000000    0.0000002000000000    5.8425377699999999
   Ag
    32
Direct
  0.4339730769918404  0.0660269107951805  0.4999992277854091
  0.0660269225308809  0.4339730896820981  0.0000007730703828
  0.1839730775034809  0.3160269113067926  0.2500007977367460
  0.3160269230425072  0.1839730901937529  0.2499992031190459
  0.9339730780151072  0.0660269118184473  0.4999992286412009
  0.5660269225308809  0.4339730896820981  0.0000007722145909
  0.6839730775034809  0.3160269113067926  0.2500007968809541
  0.8160269230425072  0.1839730901937529  0.2499992039748378
  0.4339730769918404  0.5660269107951805  0.4999992269296172
  0.0660269225308809  0.9339730896820981  0.0000007722145909
  0.1839730775034809  0.8160269113067926  0.2500007968809541
  0.3160269220192404  0.6839730891704860  0.2499992022632540
  0.9339730769918404  0.5660269107951805  0.4999992277854091
  0.5660269225308809  0.9339730896820981  0.0000007713587991
  0.6839730775034809  0.8160269113067926  0.2500007977367460
  0.8160269230425072  0.6839730901937529  0.2499992031190459
  0.4339730780151072  0.0660269118184473  0.9999992269296172
  0.0660269225308809  0.4339730896820981  0.5000007722145909
  0.1839730775034809  0.3160269113067926  0.7500007968809541
  0.3160269230425072  0.1839730901937529  0.7499992022632540
  0.9339730780151072  0.0660269118184473  0.9999992277854091
  0.5660269225308809  0.4339730896820981  0.5000007730703828
  0.6839730775034809  0.3160269113067926  0.7500007977367460
  0.8160269230425072  0.1839730901937529  0.7499992031190459
  0.4339730780151072  0.5660269118184473  0.9999992277854091
  0.0660269225308809  0.9339730896820981  0.5000007713587991
  0.1839730775034809  0.8160269113067926  0.7500007960251622
  0.3160269230425072  0.6839730901937529  0.7499992031190459
  0.9339730775378285  0.5660269122957260  0.9999992269296172
  0.5660269225308809  0.9339730896820981  0.5000007722145909
  0.6839730775034809  0.8160269113067926  0.7500007968809541
  0.8160269230238425  0.6839730902404401  0.7465760322663572
 
  0.00000000E+00  0.00000000E+00  0.00000000E+00
  0.00000000E+00  0.00000000E+00  0.00000000E+00
  0.00000000E+00  0.00000000E+00  0.00000000E+00
  0.00000000E+00  0.00000000E+00  0.00000000E+00
  0.00000000E+00  0.00000000E+00  0.00000000E+00
  0.00000000E+00  0.00000000E+00  0.00000000E+00
  0.00000000E+00  0.00000000E+00  0.00000000E+00
  0.00000000E+00  0.00000000E+00  0.00000000E+00
  0.00000000E+00  0.00000000E+00  0.00000000E+00
  0.00000000E+00  0.00000000E+00  0.00000000E+00
  0.00000000E+00  0.00000000E+00  0.00000000E+00
  0.00000000E+00  0.00000000E+00  0.00000000E+00
  0.00000000E+00  0.00000000E+00  0.00000000E+00
  0.00000000E+00  0.00000000E+00  0.00000000E+00
  0.00000000E+00  0.00000000E+00  0.00000000E+00
  0.00000000E+00  0.00000000E+00  0.00000000E+00
  0.00000000E+00  0.00000000E+00  0.00000000E+00
  0.00000000E+00  0.00000000E+00  0.00000000E+00
  0.00000000E+00  0.00000000E+00  0.00000000E+00
  0.00000000E+00  0.00000000E+00  0.00000000E+00
  0.00000000E+00  0.00000000E+00  0.00000000E+00
  0.00000000E+00  0.00000000E+00  0.00000000E+00
  0.00000000E+00  0.00000000E+00  0.00000000E+00
  0.00000000E+00  0.00000000E+00  0.00000000E+00
  0.00000000E+00  0.00000000E+00  0.00000000E+00
  0.00000000E+00  0.00000000E+00  0.00000000E+00
  0.00000000E+00  0.00000000E+00  0.00000000E+00
  0.00000000E+00  0.00000000E+00  0.00000000E+00
  0.00000000E+00  0.00000000E+00  0.00000000E+00
  0.00000000E+00  0.00000000E+00  0.00000000E+00
  0.00000000E+00  0.00000000E+00  0.00000000E+00
  0.00000000E+00  0.00000000E+00  0.00000000E+00
