# AgNb_sv/317 - (317) - alphaGa [A4] (31
   1.00000000000000     
     4.1201370156686368  -11.8929104903182807   -1.4061086661545299
     4.1201327274893265   11.8929118827666223    1.4061096118149488
    -0.0000007848076809    0.7250065075513389    5.8253331092521456
   Ag
    31
Direct
  0.0990535659732996  0.4009464447275038  0.0967820379775360
  0.2231106309430883  0.2768893674080836  0.2212124126786504
  0.3489252313806100  0.1510747486256332  0.3464674335305938
  0.9068344427980393  0.0856971073659065  0.9112274498228866
  0.5366922332685566  0.4643402940638905  0.0349854217453622
  0.6614098210072362  0.3375511325417401  0.1585406938747707
  0.7838106142646776  0.2087278250430175  0.2823390358147653
  0.4143029089497528  0.5931655730895753  0.9112274482721241
  0.0356596869928309  0.9633077497874187  0.0349854278830837
  0.1624488599898170  0.8385901713106146  0.1585406895411724
  0.2912721825742450  0.7161893936442644  0.2823390448704275
  0.9749971257087257  0.5250028734777139  0.9723325031653081
  0.4754029172891315  0.0245970890452505  0.9725572067888759
  0.7227119204955766  0.7772880745895958  0.2209956882228890
  0.8496051611689406  0.6503948316152305  0.3472067622860238
  0.4745280718856549  0.0254719298408930  0.4718550689057461
  0.0990517536784604  0.4009482599183425  0.5967810227447395
  0.2239608492922517  0.2760391536284335  0.7226181824743131
  0.3485011442146380  0.1514988248787285  0.8463209949371032
  0.9074747508095461  0.0859798332687242  0.4073017088767600
  0.5366343045169565  0.4641206306647103  0.5336028468630415
  0.6614669103405132  0.3377723873647699  0.6599289573742005
  0.7840924471433495  0.2093702685906932  0.7862645957627299
  0.4140201756626878  0.5925252597728465  0.4073017035114844
  0.0358793572877730  0.9633656849882717  0.5336028494840366
  0.1622276027161635  0.8385330775833972  0.6599289548122788
  0.2906297483321097  0.7159075676230886  0.7862646081941695
  0.9741414266620256  0.5258585795928418  0.4709215928604043
  0.5990516881978072  0.9009483278485980  0.5967829254360423
  0.7235767777782178  0.7764232189601116  0.7216880321408899
  0.8491781598454542  0.6508218301549431  0.8470588699892040
 
  0.00000000E+00  0.00000000E+00  0.00000000E+00
  0.00000000E+00  0.00000000E+00  0.00000000E+00
  0.00000000E+00  0.00000000E+00  0.00000000E+00
  0.00000000E+00  0.00000000E+00  0.00000000E+00
  0.00000000E+00  0.00000000E+00  0.00000000E+00
  0.00000000E+00  0.00000000E+00  0.00000000E+00
  0.00000000E+00  0.00000000E+00  0.00000000E+00
  0.00000000E+00  0.00000000E+00  0.00000000E+00
  0.00000000E+00  0.00000000E+00  0.00000000E+00
  0.00000000E+00  0.00000000E+00  0.00000000E+00
  0.00000000E+00  0.00000000E+00  0.00000000E+00
  0.00000000E+00  0.00000000E+00  0.00000000E+00
  0.00000000E+00  0.00000000E+00  0.00000000E+00
  0.00000000E+00  0.00000000E+00  0.00000000E+00
  0.00000000E+00  0.00000000E+00  0.00000000E+00
  0.00000000E+00  0.00000000E+00  0.00000000E+00
  0.00000000E+00  0.00000000E+00  0.00000000E+00
  0.00000000E+00  0.00000000E+00  0.00000000E+00
  0.00000000E+00  0.00000000E+00  0.00000000E+00
  0.00000000E+00  0.00000000E+00  0.00000000E+00
  0.00000000E+00  0.00000000E+00  0.00000000E+00
  0.00000000E+00  0.00000000E+00  0.00000000E+00
  0.00000000E+00  0.00000000E+00  0.00000000E+00
  0.00000000E+00  0.00000000E+00  0.00000000E+00
  0.00000000E+00  0.00000000E+00  0.00000000E+00
  0.00000000E+00  0.00000000E+00  0.00000000E+00
  0.00000000E+00  0.00000000E+00  0.00000000E+00
  0.00000000E+00  0.00000000E+00  0.00000000E+00
  0.00000000E+00  0.00000000E+00  0.00000000E+00
  0.00000000E+00  0.00000000E+00  0.00000000E+00
  0.00000000E+00  0.00000000E+00  0.00000000E+00
