# Fcc Ag oriented X=[100] Y=[010] Z=[001
   1.00000000000000     
     8.4519007186939277    0.0000000000000000    0.0000000000000000
    -0.0000000000000000    8.4519007186939277    0.0000000000000000
    -0.0000000000000000   -0.0000000000000000    8.4519007186939294
   Ag
    33
Direct
 -0.0000000000000000 -0.0000000000000000 -0.0600279516790948
  0.2457463266729183  0.2457463266729183  0.0042536733270816
 -0.0000000000000000  0.3100279516790947  0.2500000000000000
  0.3100279516790947 -0.0000000000000000  0.2500000000000000
  0.5000000000000000 -0.0000000000000000 -0.0167249335306645
  0.7542536733270816  0.2457463266729183  0.0042536733270816
  0.5000000000000000  0.2667249335306646  0.2500000000000000
  0.6899720483209046 -0.0000000000000000  0.2500000000000000
 -0.0000000000000000  0.5000000000000000 -0.0167249335306645
  0.2457463266729183  0.7542536733270816  0.0042536733270816
 -0.0000000000000000  0.6899720483209046  0.2500000000000000
  0.2667249335306646  0.5000000000000000  0.2500000000000000
  0.5000000000000000  0.5000000000000000 -0.0059895785210109
  0.7542536733270816  0.7542536733270816  0.0042536733270816
  0.5000000000000000  0.7332750664693354  0.2500000000000000
  0.7332750664693354  0.5000000000000000  0.2500000000000000
 -0.0000000000000000 -0.0000000000000000  0.5600279516790954
  0.2457463266729183  0.2457463266729183  0.4957463266729186
 -0.0000000000000000  0.2667249335306645  0.7500000000000000
  0.2667249335306645 -0.0000000000000000  0.7500000000000000
  0.5000000000000000 -0.0000000000000000  0.5167249335306645
  0.7542536733270816  0.2457463266729183  0.4957463266729186
  0.5000000000000000  0.2559895785210110  0.7500000000000000
  0.7332750664693354 -0.0000000000000000  0.7500000000000000
 -0.0000000000000000  0.5000000000000000  0.5167249335306646
  0.2457463266729183  0.7542536733270816  0.4957463266729186
 -0.0000000000000000  0.7332750664693354  0.7500000000000000
  0.2559895785210110  0.5000000000000000  0.7500000000000000
  0.5000000000000000  0.5000000000000000  0.5059895785210107
  0.7542536733270816  0.7542536733270816  0.4957463266729186
  0.5000000000000000  0.7440104214789893  0.7500000000000000
  0.7440104214789893  0.5000000000000000  0.7500000000000000
 -0.0000000000000000 -0.0000000000000000  0.2500000000000000
 
  0.00000000E+00  0.00000000E+00  0.00000000E+00
  0.00000000E+00  0.00000000E+00  0.00000000E+00
  0.00000000E+00  0.00000000E+00  0.00000000E+00
  0.00000000E+00  0.00000000E+00  0.00000000E+00
  0.00000000E+00  0.00000000E+00  0.00000000E+00
  0.00000000E+00  0.00000000E+00  0.00000000E+00
  0.00000000E+00  0.00000000E+00  0.00000000E+00
  0.00000000E+00  0.00000000E+00  0.00000000E+00
  0.00000000E+00  0.00000000E+00  0.00000000E+00
  0.00000000E+00  0.00000000E+00  0.00000000E+00
  0.00000000E+00  0.00000000E+00  0.00000000E+00
  0.00000000E+00  0.00000000E+00  0.00000000E+00
  0.00000000E+00  0.00000000E+00  0.00000000E+00
  0.00000000E+00  0.00000000E+00  0.00000000E+00
  0.00000000E+00  0.00000000E+00  0.00000000E+00
  0.00000000E+00  0.00000000E+00  0.00000000E+00
  0.00000000E+00  0.00000000E+00  0.00000000E+00
  0.00000000E+00  0.00000000E+00  0.00000000E+00
  0.00000000E+00  0.00000000E+00  0.00000000E+00
  0.00000000E+00  0.00000000E+00  0.00000000E+00
  0.00000000E+00  0.00000000E+00  0.00000000E+00
  0.00000000E+00  0.00000000E+00  0.00000000E+00
  0.00000000E+00  0.00000000E+00  0.00000000E+00
  0.00000000E+00  0.00000000E+00  0.00000000E+00
  0.00000000E+00  0.00000000E+00  0.00000000E+00
  0.00000000E+00  0.00000000E+00  0.00000000E+00
  0.00000000E+00  0.00000000E+00  0.00000000E+00
  0.00000000E+00  0.00000000E+00  0.00000000E+00
  0.00000000E+00  0.00000000E+00  0.00000000E+00
  0.00000000E+00  0.00000000E+00  0.00000000E+00
  0.00000000E+00  0.00000000E+00  0.00000000E+00
  0.00000000E+00  0.00000000E+00  0.00000000E+00
  0.00000000E+00  0.00000000E+00  0.00000000E+00
