# Bcc Ag oriented X=[100] Y=[010] Z=[00 
   1.00000000000000     
     6.5323401500762879   -0.0000000191599090    0.0000000674455825
     0.0000000201362144    6.5323399772367665    0.0000001180480376
     0.0000000522498898    0.0000000126607937    6.5323399487270457
   Ag
    15
Direct
  0.2416751593340885  0.2416751595661145  0.2416754001331443
  0.4999999998570430  0.9999999990341146  0.0000000000468797
  0.7583248551103490  0.2416751421453510  0.2416751410608984
  0.0000000004479293  0.5000000000337869  0.0000000001176580
  0.2416751422883839  0.7583248559106965  0.2416751419815938
  0.4999999990361825  0.5000000007125780  0.0000000006013104
  0.7583248743622392  0.7583248745816541  0.2416748835007472
  0.9999999992927756  0.0000000009055256  0.5000000003709898
  0.2416751253325279  0.2416751252990381  0.7583251178621168
  0.4999999995639872  0.0000000002170614  0.5000000006339462
  0.7583248562347544  0.2416751449754797  0.7583248579818863
  0.9999999994957527  0.4999999999754282  0.5000000002592954
  0.2416751435118151  0.7583248580489400  0.7583248581456599
  0.4999999990944614  0.4999999995290344  0.4999999994929251
  0.7583248393842486  0.7583248390651969  0.7583245993416282
 
  0.00000000E+00  0.00000000E+00  0.00000000E+00
  0.00000000E+00  0.00000000E+00  0.00000000E+00
  0.00000000E+00  0.00000000E+00  0.00000000E+00
  0.00000000E+00  0.00000000E+00  0.00000000E+00
  0.00000000E+00  0.00000000E+00  0.00000000E+00
  0.00000000E+00  0.00000000E+00  0.00000000E+00
  0.00000000E+00  0.00000000E+00  0.00000000E+00
  0.00000000E+00  0.00000000E+00  0.00000000E+00
  0.00000000E+00  0.00000000E+00  0.00000000E+00
  0.00000000E+00  0.00000000E+00  0.00000000E+00
  0.00000000E+00  0.00000000E+00  0.00000000E+00
  0.00000000E+00  0.00000000E+00  0.00000000E+00
  0.00000000E+00  0.00000000E+00  0.00000000E+00
  0.00000000E+00  0.00000000E+00  0.00000000E+00
  0.00000000E+00  0.00000000E+00  0.00000000E+00
