Ag                                      
   1.00000000000000     
    -5.8189892740344318   -0.0067026903197710    0.0024008488531704
     2.9036596678952171   -5.0293263171049123   -0.0000130403093642
    -0.0078018186078195   -0.0045183000258725   19.0313850402759748
   Ag
    30
Direct
  0.0004163635120875  0.0098720013592413  0.0088716113853664
  0.0004173707247048  0.0098731157520362  0.5088717076136788
  0.5004115395095141  0.5098669988976496  0.0088717727848859
  0.5004124958606155  0.5098680875044010  0.5088718612979974
  0.5004095492976290  0.0098734894070702  0.0088726862161508
  0.5004105059951556  0.0098745331478440  0.5088727647645044
  0.0003995240154069  0.5098677234374094  0.2588747470162716
  0.0004230493574013  0.5098785609496019  0.7588747533127318
  0.0003966248515539  0.0098676355096927  0.2588711066086233
  0.0004191380015399  0.0098780201797766  0.7588716152743231
  0.5003983980047266  0.5098694525851712  0.2588707313084129
  0.5004227154651062  0.5098797636015249  0.7588704938213837
  0.5004021561107734  0.0098637859843933  0.2588732807445595
  0.5004263092253467  0.0098757629315713  0.7588730492396394
  0.6677181003784298  0.8435446480982804  0.1333871700469871
  0.6677355489077073  0.8435533674516194  0.6333872487600019
  0.6704378292736521  0.3449035235902045  0.1318816016440678
  0.6704593689787046  0.3449142439125339  0.6318804164268741
  0.1667628425991268  0.8413810440251694  0.1319604425296035
  0.1667815516680449  0.8413917282752550  0.6319611067951811
  0.1667533318435304  0.3447616325075913  0.1319575901370698
  0.1667721903373689  0.3447697428175758  0.6319582941641073
  0.8340325229281689  0.6750254231823618  0.3857854157889307
  0.8340498372245051  0.6750320501131455  0.8857859554410012
  0.8340431125699368  0.1784099509933128  0.3857910972113174
  0.8340603882536044  0.1784192726511975  0.8857916506002468
  0.3303522070617291  0.6748666552362934  0.3858705738564154
  0.3303722297003091  0.6748759273094720  0.8858692896439280
  0.3330825601794842  0.1762319235681105  0.3843467997141659
  0.3330985093599423  0.1762391701203754  0.8843467479816596
 
  0.00000000E+00  0.00000000E+00  0.00000000E+00
  0.00000000E+00  0.00000000E+00  0.00000000E+00
  0.00000000E+00  0.00000000E+00  0.00000000E+00
  0.00000000E+00  0.00000000E+00  0.00000000E+00
  0.00000000E+00  0.00000000E+00  0.00000000E+00
  0.00000000E+00  0.00000000E+00  0.00000000E+00
  0.00000000E+00  0.00000000E+00  0.00000000E+00
  0.00000000E+00  0.00000000E+00  0.00000000E+00
  0.00000000E+00  0.00000000E+00  0.00000000E+00
  0.00000000E+00  0.00000000E+00  0.00000000E+00
  0.00000000E+00  0.00000000E+00  0.00000000E+00
  0.00000000E+00  0.00000000E+00  0.00000000E+00
  0.00000000E+00  0.00000000E+00  0.00000000E+00
  0.00000000E+00  0.00000000E+00  0.00000000E+00
  0.00000000E+00  0.00000000E+00  0.00000000E+00
  0.00000000E+00  0.00000000E+00  0.00000000E+00
  0.00000000E+00  0.00000000E+00  0.00000000E+00
  0.00000000E+00  0.00000000E+00  0.00000000E+00
  0.00000000E+00  0.00000000E+00  0.00000000E+00
  0.00000000E+00  0.00000000E+00  0.00000000E+00
  0.00000000E+00  0.00000000E+00  0.00000000E+00
  0.00000000E+00  0.00000000E+00  0.00000000E+00
  0.00000000E+00  0.00000000E+00  0.00000000E+00
  0.00000000E+00  0.00000000E+00  0.00000000E+00
  0.00000000E+00  0.00000000E+00  0.00000000E+00
  0.00000000E+00  0.00000000E+00  0.00000000E+00
  0.00000000E+00  0.00000000E+00  0.00000000E+00
  0.00000000E+00  0.00000000E+00  0.00000000E+00
  0.00000000E+00  0.00000000E+00  0.00000000E+00
  0.00000000E+00  0.00000000E+00  0.00000000E+00
