# Ag                                    
   1.00000000000000     
     5.8423202364925491    0.0000596699561108    0.0000202950550850
     2.9211633238778996    5.0595393200558778    0.0000186430837656
     0.0000571536016813    0.0000270380934857    9.6211935980266450
   Ag
    16
Direct
  0.3305955978675917  0.3444049666686095  0.1272707554531737
  0.1639302921003494  0.1777636983075065  0.3772696745704866
  0.8305955979755343  0.3444049668373659  0.1272707552877210
  0.6639302922721985  0.1777636972192100  0.3772696743301461
  0.3305955978277177  0.8444049663400064  0.1272707553097843
  0.1639302923578583  0.6777636975946697  0.3772696743312131
  0.8305955977565030  0.8444049665513793  0.1272707556078456
  0.6639302916235454  0.6777636977634101  0.3772696745099533
  0.3305955984379620  0.3444049664731620  0.6272707554901626
  0.1639302926168937  0.1777636982531514  0.8772696746619493
  0.8305955985795226  0.3444049658340584  0.6272707552650576
  0.6639302923604812  0.1777636981336618  0.8772696744074459
  0.3305955984799559  0.8444049661321406  0.6272707557294583
  0.1639302921053096  0.6777636978994688  0.8772696745723032
  0.8305955983606623  0.8444049659947187  0.6272707553163797
  0.6639302918449937  0.6777636983734971  0.8772696746597068
 
  0.00000000E+00  0.00000000E+00  0.00000000E+00
  0.00000000E+00  0.00000000E+00  0.00000000E+00
  0.00000000E+00  0.00000000E+00  0.00000000E+00
  0.00000000E+00  0.00000000E+00  0.00000000E+00
  0.00000000E+00  0.00000000E+00  0.00000000E+00
  0.00000000E+00  0.00000000E+00  0.00000000E+00
  0.00000000E+00  0.00000000E+00  0.00000000E+00
  0.00000000E+00  0.00000000E+00  0.00000000E+00
  0.00000000E+00  0.00000000E+00  0.00000000E+00
  0.00000000E+00  0.00000000E+00  0.00000000E+00
  0.00000000E+00  0.00000000E+00  0.00000000E+00
  0.00000000E+00  0.00000000E+00  0.00000000E+00
  0.00000000E+00  0.00000000E+00  0.00000000E+00
  0.00000000E+00  0.00000000E+00  0.00000000E+00
  0.00000000E+00  0.00000000E+00  0.00000000E+00
  0.00000000E+00  0.00000000E+00  0.00000000E+00
