# Ag                                    
   1.00000000000000     
     2.9088363073101053    0.0000203980561517    0.0000082750224796
     1.4544116828224896    2.5191187986887749    0.0000072967719949
     0.0000252372663712    0.0000113246534147    4.8468871916941936
   Ag
     2
Direct
  0.6611918009166899  0.6888114974586657  0.2545414699432058
  0.3278599763577006  0.3555258342907521  0.7545393886374470
 
  0.00000000E+00  0.00000000E+00  0.00000000E+00
  0.00000000E+00  0.00000000E+00  0.00000000E+00
