Ag 
 1.0000000000000000
     8.2784610000000001    0.0000000000000000    0.0000000000000000
     0.0000000000000000    8.2784610000000001    0.0000000000000000
     0.0000000000000000    0.0000000000000000    8.2784610000000001
 Ag 
  31
Cartesian
  0.0169856825922881  0.0199200236669880  4.1791457092060877
  0.0783427375673608  4.2140783471152581  0.0241305335328554
  0.0997762565644142  4.2166686933569606  4.1448235179973416
  4.1970744223843290  0.0150488254156579  0.0018906403412179
  4.2194354975827224  0.0617385982704790  4.1707037964738900
  4.1568808363268603  4.2216611137730276  0.0223579766988532
  4.2113729512374896  4.1524807330940332  4.1867876495001752
  0.0087596649205971  2.0931990701993981  2.1590948713535441
  0.0658702342613638  2.0987666238013802  6.2180710267672019
  0.0821677484556268  6.2738635367134892  2.0710328029694733
  0.0689977569879606  6.2334571177158749  6.2960915237610102
  4.2293275832949044  2.1296020913354932  2.1242708264896919
  4.2033364847992711  2.0983378170247775  6.2838711191102634
  4.1860054353174334  6.2691594474061052  2.0835447348201233
  4.2016689330529404  6.2108731516409605  6.2674640236497812
  2.0890762378033325  0.0302656917395963  2.1172462152027145
  2.1222708242815105  0.0844076619729466  6.2178332540672816
  2.0902608776143832  4.1898855701633737  2.1570630451641764
  2.0986092444056816  4.1405835373894044  6.2912194809760722
  6.2270924993588705  0.0376299271042446  2.1298684670999113
  6.3016551747670233  0.0428388267559182  6.3064148817830032
  6.3077976509182889  4.2187328346079580  2.1019904919734929
  6.2648198915056152  4.2229469850092274  6.2243872800893012
  2.1474364885840336  2.1412253072532486  0.0835574104503125
  2.0921331117027875  2.1578851641950774  4.1933066543127300
  2.0956051799544801  6.2351013935594137  0.0110473377540623
  2.1622024905550568  6.2360798777327746  4.2352915393442014
  6.2620282060063950  2.0853096253129251  0.0280131775409156
  6.2108973908651510  2.0701717233545809  4.1951933745041030
  6.2487737695542700  6.2283596962468391  0.0605429386811047
  6.2395340300321394  6.2564586865560727  4.1969444313627182
