# Fcc Ag oriented X=[100] Y=[010] Z=[001
   1.00000000000000     
     8.4751490780238932   -0.0000000000000000    0.0000000000000000
    -0.0000000000000000    8.4751490780238932    0.0000000000000000
    -0.0000000000000000   -0.0000000000000000    8.4751490780238932
   Ag
    33
Direct
 -0.0438766863849993 -0.0438766863849993 -0.0438766863849993
  0.2938766863849991  0.2938766863849991 -0.0438766863849993
 -0.0438766863849993  0.2938766863849991  0.2938766863849991
  0.2938766863849991 -0.0438766863849993  0.2938766863849991
  0.4967172939934233  0.0022347805679245  0.0022347805679245
  0.7532827060065769  0.2477652194320755  0.0022347805679245
  0.4967172939934233  0.2477652194320755  0.2477652194320755
  0.7532827060065769  0.0022347805679245  0.2477652194320755
  0.0022347805679245  0.4967172939934233  0.0022347805679245
  0.2477652194320755  0.7532827060065769  0.0022347805679245
  0.0022347805679245  0.7532827060065769  0.2477652194320755
  0.2477652194320755  0.4967172939934233  0.2477652194320755
  0.5117133985793402  0.5117133985793402 -0.0013824176028580
  0.7382866014206598  0.7382866014206598 -0.0013824176028580
  0.5117133985793402  0.7382866014206598  0.2513824176028580
  0.7382866014206598  0.5117133985793402  0.2513824176028580
  0.0022347805679245  0.0022347805679245  0.4967172939934233
  0.2477652194320755  0.2477652194320755  0.4967172939934233
  0.0022347805679245  0.2477652194320755  0.7532827060065769
  0.2477652194320755  0.0022347805679245  0.7532827060065769
  0.5117133985793402 -0.0013824176028580  0.5117133985793402
  0.7382866014206598  0.2513824176028580  0.5117133985793402
  0.5117133985793402  0.2513824176028580  0.7382866014206598
  0.7382866014206598 -0.0013824176028580  0.7382866014206598
 -0.0013824176028580  0.5117133985793402  0.5117133985793402
  0.2513824176028580  0.7382866014206598  0.5117133985793402
 -0.0013824176028580  0.7382866014206598  0.7382866014206598
  0.2513824176028580  0.5117133985793402  0.7382866014206598
  0.4984607103996579  0.4984607103996579  0.4984607103996579
  0.7515392896003422  0.7515392896003422  0.4984607103996579
  0.4984607103996579  0.7515392896003422  0.7515392896003422
  0.7515392896003422  0.4984607103996579  0.7515392896003422
  0.1250000000000000  0.1250000000000000  0.1250000000000000
 
  0.00000000E+00  0.00000000E+00  0.00000000E+00
  0.00000000E+00  0.00000000E+00  0.00000000E+00
  0.00000000E+00  0.00000000E+00  0.00000000E+00
  0.00000000E+00  0.00000000E+00  0.00000000E+00
  0.00000000E+00  0.00000000E+00  0.00000000E+00
  0.00000000E+00  0.00000000E+00  0.00000000E+00
  0.00000000E+00  0.00000000E+00  0.00000000E+00
  0.00000000E+00  0.00000000E+00  0.00000000E+00
  0.00000000E+00  0.00000000E+00  0.00000000E+00
  0.00000000E+00  0.00000000E+00  0.00000000E+00
  0.00000000E+00  0.00000000E+00  0.00000000E+00
  0.00000000E+00  0.00000000E+00  0.00000000E+00
  0.00000000E+00  0.00000000E+00  0.00000000E+00
  0.00000000E+00  0.00000000E+00  0.00000000E+00
  0.00000000E+00  0.00000000E+00  0.00000000E+00
  0.00000000E+00  0.00000000E+00  0.00000000E+00
  0.00000000E+00  0.00000000E+00  0.00000000E+00
  0.00000000E+00  0.00000000E+00  0.00000000E+00
  0.00000000E+00  0.00000000E+00  0.00000000E+00
  0.00000000E+00  0.00000000E+00  0.00000000E+00
  0.00000000E+00  0.00000000E+00  0.00000000E+00
  0.00000000E+00  0.00000000E+00  0.00000000E+00
  0.00000000E+00  0.00000000E+00  0.00000000E+00
  0.00000000E+00  0.00000000E+00  0.00000000E+00
  0.00000000E+00  0.00000000E+00  0.00000000E+00
  0.00000000E+00  0.00000000E+00  0.00000000E+00
  0.00000000E+00  0.00000000E+00  0.00000000E+00
  0.00000000E+00  0.00000000E+00  0.00000000E+00
  0.00000000E+00  0.00000000E+00  0.00000000E+00
  0.00000000E+00  0.00000000E+00  0.00000000E+00
  0.00000000E+00  0.00000000E+00  0.00000000E+00
  0.00000000E+00  0.00000000E+00  0.00000000E+00
  0.00000000E+00  0.00000000E+00  0.00000000E+00
