# Fcc Ag oriented X=[100] Y=[010] Z=[001
   1.00000000000000     
     8.4519001226283894    0.0000000000000000   -0.0000000000000000
    -0.0000000000000000    8.4519001226283912   -0.0000000000000000
     0.0000000000000000    0.0000000000000000    8.4519001226283894
   Ag
    33
Direct
  0.0042536245038291  0.0042536245038291  0.0042536245038291
  0.2500000000000000  0.2500000000000000 -0.0600278841269347
 -0.0600278841269347  0.2500000000000000  0.2500000000000000
  0.2500000000000000 -0.0600278841269347  0.2500000000000000
  0.4957463754961710  0.0042536245038291  0.0042536245038291
  0.7500000000000000  0.2500000000000000 -0.0167249225979754
  0.5600278841269346  0.2500000000000000  0.2500000000000000
  0.7500000000000000 -0.0167249225979754  0.2500000000000000
  0.0042536245038291  0.4957463754961710  0.0042536245038291
  0.2500000000000000  0.7500000000000000 -0.0167249225979754
 -0.0167249225979754  0.7500000000000000  0.2500000000000000
  0.2500000000000000  0.5600278841269346  0.2500000000000000
  0.4957463754961710  0.4957463754961710  0.0042536245038291
  0.7500000000000000  0.7500000000000000 -0.0059895563130416
  0.5167249225979752  0.7500000000000000  0.2500000000000000
  0.7500000000000000  0.5167249225979752  0.2500000000000000
  0.0042536245038291  0.0042536245038291  0.4957463754961710
  0.2500000000000000  0.2500000000000000  0.5600278841269346
 -0.0167249225979754  0.2500000000000000  0.7500000000000000
  0.2500000000000000 -0.0167249225979754  0.7500000000000000
  0.4957463754961710  0.0042536245038291  0.4957463754961710
  0.7500000000000000  0.2500000000000000  0.5167249225979752
  0.5167249225979752  0.2500000000000000  0.7500000000000000
  0.7500000000000000 -0.0059895563130416  0.7500000000000000
  0.0042536245038291  0.4957463754961710  0.4957463754961710
  0.2500000000000000  0.7500000000000000  0.5167249225979752
 -0.0059895563130416  0.7500000000000000  0.7500000000000000
  0.2500000000000000  0.5167249225979752  0.7500000000000000
  0.4957463754961710  0.4957463754961710  0.4957463754961710
  0.7500000000000000  0.7500000000000000  0.5059895563130417
  0.5059895563130417  0.7500000000000000  0.7500000000000000
  0.7500000000000000  0.5059895563130417  0.7500000000000000
  0.2500000000000000  0.2500000000000000  0.2500000000000000
 
  0.00000000E+00  0.00000000E+00  0.00000000E+00
  0.00000000E+00  0.00000000E+00  0.00000000E+00
  0.00000000E+00  0.00000000E+00  0.00000000E+00
  0.00000000E+00  0.00000000E+00  0.00000000E+00
  0.00000000E+00  0.00000000E+00  0.00000000E+00
  0.00000000E+00  0.00000000E+00  0.00000000E+00
  0.00000000E+00  0.00000000E+00  0.00000000E+00
  0.00000000E+00  0.00000000E+00  0.00000000E+00
  0.00000000E+00  0.00000000E+00  0.00000000E+00
  0.00000000E+00  0.00000000E+00  0.00000000E+00
  0.00000000E+00  0.00000000E+00  0.00000000E+00
  0.00000000E+00  0.00000000E+00  0.00000000E+00
  0.00000000E+00  0.00000000E+00  0.00000000E+00
  0.00000000E+00  0.00000000E+00  0.00000000E+00
  0.00000000E+00  0.00000000E+00  0.00000000E+00
  0.00000000E+00  0.00000000E+00  0.00000000E+00
  0.00000000E+00  0.00000000E+00  0.00000000E+00
  0.00000000E+00  0.00000000E+00  0.00000000E+00
  0.00000000E+00  0.00000000E+00  0.00000000E+00
  0.00000000E+00  0.00000000E+00  0.00000000E+00
  0.00000000E+00  0.00000000E+00  0.00000000E+00
  0.00000000E+00  0.00000000E+00  0.00000000E+00
  0.00000000E+00  0.00000000E+00  0.00000000E+00
  0.00000000E+00  0.00000000E+00  0.00000000E+00
  0.00000000E+00  0.00000000E+00  0.00000000E+00
  0.00000000E+00  0.00000000E+00  0.00000000E+00
  0.00000000E+00  0.00000000E+00  0.00000000E+00
  0.00000000E+00  0.00000000E+00  0.00000000E+00
  0.00000000E+00  0.00000000E+00  0.00000000E+00
  0.00000000E+00  0.00000000E+00  0.00000000E+00
  0.00000000E+00  0.00000000E+00  0.00000000E+00
  0.00000000E+00  0.00000000E+00  0.00000000E+00
  0.00000000E+00  0.00000000E+00  0.00000000E+00
