# Ag                                    
   1.00000000000000     
    14.8054243799999998    0.0000000000000000    0.0000000000000000
    -1.1724715999999999    5.7743562199999996    0.0000000000000000
    -1.1724730200000000    2.7681437999999998    5.0675999999999997
   Ag
    24
Direct
  0.5045663256825321  0.0043209479630733  0.0088718466335180
  0.1711248473126048  0.3931591177751770  0.3977247651748357
  0.3380078225872367  0.1154566839552515  0.1200298188491615
  0.0045663256825321  0.0043209479630733  0.0088718466335180
  0.6711248473126048  0.3931591177751770  0.3977247651748357
  0.8380078225872367  0.1154566839552515  0.1200298188491615
  0.5045663256825321  0.5043209479630733  0.0088718466335180
  0.1711248473126048  0.8931591177751770  0.3977247651748357
  0.3380078225872367  0.6154566839552515  0.1200298188491615
  0.0045663256825321  0.5043209479630733  0.0088718466335180
  0.6711248473126048  0.8931591177751770  0.3977247651748357
  0.8380078225872367  0.6154566839552515  0.1200298188491615
  0.5045663256825321  0.0043209479630733  0.5088718466335180
  0.1711248473126048  0.3931591177751770  0.8977247651748357
  0.3380078225872367  0.1154566839552515  0.6200298188491615
  0.0045663256825321  0.0043209479630733  0.5088718466335180
  0.6711248473126048  0.3931591177751770  0.8977247651748357
  0.8380078225872367  0.1154566839552515  0.6200298188491615
  0.5045663256825321  0.5043209479630733  0.5088718466335180
  0.1711248473126048  0.8931591177751770  0.8977247651748357
  0.3380078225872367  0.6154566839552515  0.6200298188491615
  0.0045663256825321  0.5043209479630733  0.5088718466335180
  0.6711248473126048  0.8931591177751770  0.8977247651748357
  0.8378451080922287  0.6173486474103267  0.6160831774409998
 
  0.00000000E+00  0.00000000E+00  0.00000000E+00
  0.00000000E+00  0.00000000E+00  0.00000000E+00
  0.00000000E+00  0.00000000E+00  0.00000000E+00
  0.00000000E+00  0.00000000E+00  0.00000000E+00
  0.00000000E+00  0.00000000E+00  0.00000000E+00
  0.00000000E+00  0.00000000E+00  0.00000000E+00
  0.00000000E+00  0.00000000E+00  0.00000000E+00
  0.00000000E+00  0.00000000E+00  0.00000000E+00
  0.00000000E+00  0.00000000E+00  0.00000000E+00
  0.00000000E+00  0.00000000E+00  0.00000000E+00
  0.00000000E+00  0.00000000E+00  0.00000000E+00
  0.00000000E+00  0.00000000E+00  0.00000000E+00
  0.00000000E+00  0.00000000E+00  0.00000000E+00
  0.00000000E+00  0.00000000E+00  0.00000000E+00
  0.00000000E+00  0.00000000E+00  0.00000000E+00
  0.00000000E+00  0.00000000E+00  0.00000000E+00
  0.00000000E+00  0.00000000E+00  0.00000000E+00
  0.00000000E+00  0.00000000E+00  0.00000000E+00
  0.00000000E+00  0.00000000E+00  0.00000000E+00
  0.00000000E+00  0.00000000E+00  0.00000000E+00
  0.00000000E+00  0.00000000E+00  0.00000000E+00
  0.00000000E+00  0.00000000E+00  0.00000000E+00
  0.00000000E+00  0.00000000E+00  0.00000000E+00
  0.00000000E+00  0.00000000E+00  0.00000000E+00
