# Ag                                    
   1.00000000000000     
     2.9134293121913704    0.0000026834132105   -0.0000166489804997
    -1.4567120173786829    2.5231015519088915    0.0000074556273683
    -0.0000548597774010   -0.0000033270886841    9.6708985966256211
   Mg
     4
Direct
  0.0073159494037824  0.0241444232882202  0.0063931206290846
  0.0073227091371706  0.0241531947763178  0.5063929666004015
  0.3406527471360263  0.6908162647767426  0.2563931460889748
  0.6739798943736304  0.3574927676884059  0.7563931775737771
 
  0.00000000E+00  0.00000000E+00  0.00000000E+00
  0.00000000E+00  0.00000000E+00  0.00000000E+00
  0.00000000E+00  0.00000000E+00  0.00000000E+00
  0.00000000E+00  0.00000000E+00  0.00000000E+00
