#  Simple cubic Ag oriented X=[100] Y=[ 
   1.00000000000000     
     2.7417278193291956   -0.0000000006434425   -0.0000000019096909
    -0.0000000004344643    2.7417278171502342   -0.0000000015568115
    -0.0000000016917698   -0.0000000031653924    2.7417278188752725
   Ag
     1
Direct
  0.9999999998119549  0.0000000001908447  0.9999999999884466
 
  0.00000000E+00  0.00000000E+00  0.00000000E+00
