# Bcc Ag oriented X=[100] Y=[010] Z=[00 
   1.00000000000000     
     6.5934585500000003    0.0000000100000000    0.0000000100000000
     0.0000000100000000    6.5934585600000002    0.0000000000000000
     0.0000000100000000    0.0000000000000000    6.5934585600000002
   Ag
    16
Direct
  0.0000000000000000  0.0000000000000000  0.0000000000000000
  0.2499999996208331  0.2499999996208331  0.2499999996208331
  0.4999999992416733  0.0000000007583267  0.9999999992416733
  0.7500000003791669  0.2500000003791669  0.2500000003791669
  0.0000000007583267  0.5000000000000000  0.0000000000000000
  0.2500000003791669  0.7500000011374937  0.2499999996208331
  0.5000000000000000  0.5000000007583267  0.9999999992416733
  0.7499999996208331  0.7500000003791669  0.2500000003791669
  0.0000000007583267  0.0000000000000000  0.5000000000000000
  0.2500000003791669  0.2499999996208331  0.7499999996208331
  0.5000000000000000  0.0000000007583267  0.5000000007583267
  0.7499999996208331  0.2500000003791669  0.7500000003791669
  0.0000000000000000  0.5000000000000000  0.5000000000000000
  0.2499999996208331  0.7499999996208331  0.7499999996208331
  0.5000000007583267  0.5000000007583267  0.5000000007583267
  0.7500000003837675  0.7500000003791669  0.7469666909531651
 
  0.00000000E+00  0.00000000E+00  0.00000000E+00
  0.00000000E+00  0.00000000E+00  0.00000000E+00
  0.00000000E+00  0.00000000E+00  0.00000000E+00
  0.00000000E+00  0.00000000E+00  0.00000000E+00
  0.00000000E+00  0.00000000E+00  0.00000000E+00
  0.00000000E+00  0.00000000E+00  0.00000000E+00
  0.00000000E+00  0.00000000E+00  0.00000000E+00
  0.00000000E+00  0.00000000E+00  0.00000000E+00
  0.00000000E+00  0.00000000E+00  0.00000000E+00
  0.00000000E+00  0.00000000E+00  0.00000000E+00
  0.00000000E+00  0.00000000E+00  0.00000000E+00
  0.00000000E+00  0.00000000E+00  0.00000000E+00
  0.00000000E+00  0.00000000E+00  0.00000000E+00
  0.00000000E+00  0.00000000E+00  0.00000000E+00
  0.00000000E+00  0.00000000E+00  0.00000000E+00
  0.00000000E+00  0.00000000E+00  0.00000000E+00
