# Bcc Ag oriented X=[100] Y=[010] Z=[00 
   1.00000000000000     
     3.2967292746879262    0.0000000073626912    0.0000000044971736
     0.0000000062677129    3.2967292814574067    0.0000000001106549
     0.0000000048899828   -0.0000000003714963    3.2967292809661695
   Ag
     2
Direct
  0.0000000000707487  0.0000000001275637  0.0000000000093863
  0.4999999999292513  0.4999999998724363  0.4999999999906137
 
  0.00000000E+00  0.00000000E+00  0.00000000E+00
  0.00000000E+00  0.00000000E+00  0.00000000E+00
