# Ag                                    
   1.00000000000000     
    -0.0000008800000000    4.1369700399999996    4.1369858199999996
     4.1369806400000000   -0.0000003000000000    4.1369852399999996
     4.1369748800000004    4.1369636999999999    0.0000054600000000
   Ag
     8
Direct
  0.1077552897290843  0.1617192247999384  0.1260694511907445
  0.6077552897290843  0.1617192247999384  0.1260694511907445
  0.1077552897290843  0.6617192247999384  0.1260694511907445
  0.6077552897290843  0.6617192247999384  0.1260694511907445
  0.1077552897290843  0.1617192247999384  0.6260694511907445
  0.6077552897290843  0.1617192247999384  0.6260694511907445
  0.1077552897290843  0.6617192247999384  0.6260694511907445
  0.6053380694790990  0.6593020038721609  0.6284866749698907
 
  0.00000000E+00  0.00000000E+00  0.00000000E+00
  0.00000000E+00  0.00000000E+00  0.00000000E+00
  0.00000000E+00  0.00000000E+00  0.00000000E+00
  0.00000000E+00  0.00000000E+00  0.00000000E+00
  0.00000000E+00  0.00000000E+00  0.00000000E+00
  0.00000000E+00  0.00000000E+00  0.00000000E+00
  0.00000000E+00  0.00000000E+00  0.00000000E+00
  0.00000000E+00  0.00000000E+00  0.00000000E+00
