# Fcc Ag oriented X=[100] Y=[010] Z=[001
   1.00000000000000     
     8.4083463997629320    0.0000000000000000    0.0000000000000000
    -0.0000000000000000    8.4748225303517177   -0.0000000000000000
    -0.0000000000000000    0.0000000000000000    8.4748225303517177
   Ag
    33
Direct
  0.2626029281866347  0.2878814349699500  0.0000000000000000
 -0.0000000000000000  0.2369434520943436  0.2369434520943436
  0.2626029281866347 -0.0000000000000000  0.2878814349699500
  0.5000000000000000 -0.0000000000000000  0.0000000000000000
  0.7373970718133652  0.2878814349699500  0.0000000000000000
  0.5000000000000000  0.2531816524762315  0.2531816524762315
  0.7373970718133652 -0.0000000000000000  0.2878814349699500
 -0.0000000000000000  0.5000000000000000  0.0000000000000000
  0.2626029281866347  0.7121185650300503  0.0000000000000000
 -0.0000000000000000  0.7630565479056562  0.2369434520943436
  0.2443811326107567  0.5000000000000000  0.2597515415787723
  0.5000000000000000  0.5000000000000000  0.0000000000000000
  0.7373970718133653  0.7121185650300503  0.0000000000000000
  0.5000000000000000  0.7468183475237692  0.2531816524762315
  0.7556188673892432  0.5000000000000000  0.2597515415787723
 -0.0000000000000000 -0.0000000000000000  0.5000000000000000
  0.2443811326107567  0.2597515415787723  0.5000000000000000
 -0.0000000000000000  0.2369434520943436  0.7630565479056562
  0.2626029281866347 -0.0000000000000000  0.7121185650300503
  0.5000000000000000 -0.0000000000000000  0.5000000000000000
  0.7556188673892432  0.2597515415787723  0.5000000000000000
  0.5000000000000000  0.2531816524762315  0.7468183475237692
  0.7373970718133652 -0.0000000000000000  0.7121185650300503
 -0.0000000000000000  0.5000000000000000  0.5000000000000000
  0.2443811326107567  0.7402484584212280  0.5000000000000000
 -0.0000000000000000  0.7630565479056562  0.7630565479056562
  0.2443811326107567  0.5000000000000000  0.7402484584212280
  0.5000000000000000  0.5000000000000000  0.5000000000000000
  0.7556188673892432  0.7402484584212280  0.5000000000000000
  0.5000000000000000  0.7468183475237692  0.7468183475237692
  0.7556188673892432  0.5000000000000000  0.7402484584212280
  0.1499258632747148 -0.0000000000000000  0.0000000000000000
  0.8500741367252851 -0.0000000000000000  0.0000000000000000
 
  0.00000000E+00  0.00000000E+00  0.00000000E+00
  0.00000000E+00  0.00000000E+00  0.00000000E+00
  0.00000000E+00  0.00000000E+00  0.00000000E+00
  0.00000000E+00  0.00000000E+00  0.00000000E+00
  0.00000000E+00  0.00000000E+00  0.00000000E+00
  0.00000000E+00  0.00000000E+00  0.00000000E+00
  0.00000000E+00  0.00000000E+00  0.00000000E+00
  0.00000000E+00  0.00000000E+00  0.00000000E+00
  0.00000000E+00  0.00000000E+00  0.00000000E+00
  0.00000000E+00  0.00000000E+00  0.00000000E+00
  0.00000000E+00  0.00000000E+00  0.00000000E+00
  0.00000000E+00  0.00000000E+00  0.00000000E+00
  0.00000000E+00  0.00000000E+00  0.00000000E+00
  0.00000000E+00  0.00000000E+00  0.00000000E+00
  0.00000000E+00  0.00000000E+00  0.00000000E+00
  0.00000000E+00  0.00000000E+00  0.00000000E+00
  0.00000000E+00  0.00000000E+00  0.00000000E+00
  0.00000000E+00  0.00000000E+00  0.00000000E+00
  0.00000000E+00  0.00000000E+00  0.00000000E+00
  0.00000000E+00  0.00000000E+00  0.00000000E+00
  0.00000000E+00  0.00000000E+00  0.00000000E+00
  0.00000000E+00  0.00000000E+00  0.00000000E+00
  0.00000000E+00  0.00000000E+00  0.00000000E+00
  0.00000000E+00  0.00000000E+00  0.00000000E+00
  0.00000000E+00  0.00000000E+00  0.00000000E+00
  0.00000000E+00  0.00000000E+00  0.00000000E+00
  0.00000000E+00  0.00000000E+00  0.00000000E+00
  0.00000000E+00  0.00000000E+00  0.00000000E+00
  0.00000000E+00  0.00000000E+00  0.00000000E+00
  0.00000000E+00  0.00000000E+00  0.00000000E+00
  0.00000000E+00  0.00000000E+00  0.00000000E+00
  0.00000000E+00  0.00000000E+00  0.00000000E+00
  0.00000000E+00  0.00000000E+00  0.00000000E+00
