# Fcc Ag oriented X=[100] Y=[010] Z=[001
   1.00000000000000     
     8.4718673516895997    0.1712441114395233    0.1712441114395235
     0.1712441114395234    8.4718673516895997    0.1712441114395236
     0.1712441114395235    0.1712441114395234    8.4718673516896015
   Ag
    33
Direct
  0.2840976216069060  0.2840976216069060  0.0046254829183348
  0.0046254829183348  0.2840976216069060  0.2840976216069060
  0.2840976216069060  0.0046254829183348  0.2840976216069060
  0.5000000000000000  0.0000000000000000  0.0000000000000000
  0.7552565128025214  0.2447434871974790  0.0000000000000000
  0.5101082045783769  0.2546421129832512  0.2546421129832512
  0.7552565128025214  0.0000000000000000  0.2447434871974791
 -0.0000000000000000  0.5000000000000000  0.0000000000000000
  0.2447434871974790  0.7552565128025214  0.0000000000000000
 -0.0000000000000000  0.7552565128025214  0.2447434871974791
  0.2546421129832512  0.5101082045783769  0.2546421129832512
  0.5000000000000000  0.5000000000000000  0.0000000000000000
  0.7159023783930941  0.7159023783930941 -0.0046254829183348
  0.5000000000000000  0.7475989999354162  0.2524010000645840
  0.7475989999354162  0.5000000000000000  0.2524010000645840
 -0.0000000000000000  0.0000000000000000  0.5000000000000000
  0.2546421129832512  0.2546421129832512  0.5101082045783769
 -0.0000000000000000  0.2447434871974790  0.7552565128025214
  0.2447434871974790  0.0000000000000000  0.7552565128025214
  0.5000000000000000  0.0000000000000000  0.5000000000000000
  0.7475989999354162  0.2524010000645840  0.5000000000000000
  0.5000000000000000  0.2524010000645840  0.7475989999354162
  0.7159023783930941 -0.0046254829183348  0.7159023783930941
 -0.0000000000000000  0.5000000000000000  0.5000000000000000
  0.2524010000645840  0.7475989999354162  0.5000000000000000
 -0.0046254829183348  0.7159023783930941  0.7159023783930941
  0.2524010000645840  0.5000000000000000  0.7475989999354162
  0.5000000000000000  0.5000000000000000  0.5000000000000000
  0.7453578870167483  0.7453578870167483  0.4898917954216229
  0.4898917954216229  0.7453578870167483  0.7453578870167483
  0.7453578870167483  0.4898917954216229  0.7453578870167483
  0.0789368297159013  0.0789368297159012  0.0789368297159012
  0.9210631702840991  0.9210631702840991  0.9210631702840991
 
  0.00000000E+00  0.00000000E+00  0.00000000E+00
  0.00000000E+00  0.00000000E+00  0.00000000E+00
  0.00000000E+00  0.00000000E+00  0.00000000E+00
  0.00000000E+00  0.00000000E+00  0.00000000E+00
  0.00000000E+00  0.00000000E+00  0.00000000E+00
  0.00000000E+00  0.00000000E+00  0.00000000E+00
  0.00000000E+00  0.00000000E+00  0.00000000E+00
  0.00000000E+00  0.00000000E+00  0.00000000E+00
  0.00000000E+00  0.00000000E+00  0.00000000E+00
  0.00000000E+00  0.00000000E+00  0.00000000E+00
  0.00000000E+00  0.00000000E+00  0.00000000E+00
  0.00000000E+00  0.00000000E+00  0.00000000E+00
  0.00000000E+00  0.00000000E+00  0.00000000E+00
  0.00000000E+00  0.00000000E+00  0.00000000E+00
  0.00000000E+00  0.00000000E+00  0.00000000E+00
  0.00000000E+00  0.00000000E+00  0.00000000E+00
  0.00000000E+00  0.00000000E+00  0.00000000E+00
  0.00000000E+00  0.00000000E+00  0.00000000E+00
  0.00000000E+00  0.00000000E+00  0.00000000E+00
  0.00000000E+00  0.00000000E+00  0.00000000E+00
  0.00000000E+00  0.00000000E+00  0.00000000E+00
  0.00000000E+00  0.00000000E+00  0.00000000E+00
  0.00000000E+00  0.00000000E+00  0.00000000E+00
  0.00000000E+00  0.00000000E+00  0.00000000E+00
  0.00000000E+00  0.00000000E+00  0.00000000E+00
  0.00000000E+00  0.00000000E+00  0.00000000E+00
  0.00000000E+00  0.00000000E+00  0.00000000E+00
  0.00000000E+00  0.00000000E+00  0.00000000E+00
  0.00000000E+00  0.00000000E+00  0.00000000E+00
  0.00000000E+00  0.00000000E+00  0.00000000E+00
  0.00000000E+00  0.00000000E+00  0.00000000E+00
  0.00000000E+00  0.00000000E+00  0.00000000E+00
  0.00000000E+00  0.00000000E+00  0.00000000E+00
