#  Simple cubic Ag oriented X=[100] Y=[ 
   1.00000000000000     
     5.4346194654054285    0.0000000031694461    0.0000000015720020
     0.0000000005236927    5.4346194647980370    0.0000000050192748
     0.0000000098231464    0.0000000145172449    5.4346194704846988
   Ag
     7
Direct
  0.5000000004660023  0.9999999957026304  0.9999999957945889
  0.9999999990086792  0.5000000022575861  0.0000000014301449
  0.5000000006758256  0.5000000026188687  0.9999999988128039
  0.0000000016870558  0.9999999945744520  0.5000000013803785
  0.4999999979965608  0.9999999950029448  0.5000000030367318
  0.0000000007983019  0.5000000053533569  0.4999999971866202
  0.4999999993675672  0.5000000026512978  0.5000000005198828
 
  0.00000000E+00  0.00000000E+00  0.00000000E+00
  0.00000000E+00  0.00000000E+00  0.00000000E+00
  0.00000000E+00  0.00000000E+00  0.00000000E+00
  0.00000000E+00  0.00000000E+00  0.00000000E+00
  0.00000000E+00  0.00000000E+00  0.00000000E+00
  0.00000000E+00  0.00000000E+00  0.00000000E+00
  0.00000000E+00  0.00000000E+00  0.00000000E+00
