# Ag                                    
   1.00000000000000     
    10.0487102883317281    0.0000035700560351   -0.0000100582320417
     0.0000359631024667    5.8932744133139225   -0.0000086433721283
     0.0000182393424105    0.0001377894247912    9.5301143347954262
   Ag
    31
Direct
  0.0892032334265238  0.0089760056975052  0.8697816770204270
  0.0898418379107753  0.5089595080320208  0.3697814051177843
  0.0890295845894258  0.5089758712281593  0.8697823621824270
  0.5895333214625040  0.0089642692340490  0.3697794499671829
  0.5889500490138744  0.0089788861217386  0.8697792119797683
  0.5894368472488694  0.5089639316657184  0.3697794300281245
  0.5885645616802435  0.5089789946558909  0.8697792340305881
  0.1696715428444122  0.2564452499204890  0.1229918598983701
  0.1696694925171442  0.2564498878367800  0.6165769434378419
  0.1696686542002368  0.7614560510427353  0.1229927335052352
  0.1696660714322888  0.7614569289990953  0.6165755805390205
  0.6715435581476754  0.2586909192502489  0.1204071677206500
  0.6715421036459190  0.2586901884654367  0.6191549682699176
  0.6715437915797438  0.7592304679451303  0.1204070421235883
  0.6715428577816951  0.7592315773791682  0.6191551941517375
  0.3359962100745477  0.2563860310952180  0.3697835095627511
  0.3385563774898515  0.2591281317529663  0.8697807479885284
  0.3359993625434541  0.7615073338487761  0.3697831894156920
  0.3385551544343883  0.7588273159098975  0.8697809531888581
  0.8433579353880560  0.2564193832959631  0.3697829189106940
  0.8392455702301334  0.2594570331295429  0.8697792691514863
  0.8433574636660666  0.7614729478475226  0.3697830374339333
  0.8392460769894186  0.7584966660329258  0.8697797745299951
  0.4201331020567807  0.0089572142537051  0.1206504154246844
  0.4201297732186760  0.0089597056621997  0.6189123814427973
  0.4200399662087193  0.5089578523095994  0.1207273310720183
  0.4200370536850713  0.5089612574771181  0.6188350027426424
  0.9225189418048103  0.0089563565194766  0.1218322880699105
  0.9225217853014414  0.0089583326003080  0.6177306242033112
  0.9219157152138209  0.5089549652647207  0.1205019475742830
  0.9219156858637803  0.5089558786467379  0.6190629411312827
 
  0.00000000E+00  0.00000000E+00  0.00000000E+00
  0.00000000E+00  0.00000000E+00  0.00000000E+00
  0.00000000E+00  0.00000000E+00  0.00000000E+00
  0.00000000E+00  0.00000000E+00  0.00000000E+00
  0.00000000E+00  0.00000000E+00  0.00000000E+00
  0.00000000E+00  0.00000000E+00  0.00000000E+00
  0.00000000E+00  0.00000000E+00  0.00000000E+00
  0.00000000E+00  0.00000000E+00  0.00000000E+00
  0.00000000E+00  0.00000000E+00  0.00000000E+00
  0.00000000E+00  0.00000000E+00  0.00000000E+00
  0.00000000E+00  0.00000000E+00  0.00000000E+00
  0.00000000E+00  0.00000000E+00  0.00000000E+00
  0.00000000E+00  0.00000000E+00  0.00000000E+00
  0.00000000E+00  0.00000000E+00  0.00000000E+00
  0.00000000E+00  0.00000000E+00  0.00000000E+00
  0.00000000E+00  0.00000000E+00  0.00000000E+00
  0.00000000E+00  0.00000000E+00  0.00000000E+00
  0.00000000E+00  0.00000000E+00  0.00000000E+00
  0.00000000E+00  0.00000000E+00  0.00000000E+00
  0.00000000E+00  0.00000000E+00  0.00000000E+00
  0.00000000E+00  0.00000000E+00  0.00000000E+00
  0.00000000E+00  0.00000000E+00  0.00000000E+00
  0.00000000E+00  0.00000000E+00  0.00000000E+00
  0.00000000E+00  0.00000000E+00  0.00000000E+00
  0.00000000E+00  0.00000000E+00  0.00000000E+00
  0.00000000E+00  0.00000000E+00  0.00000000E+00
  0.00000000E+00  0.00000000E+00  0.00000000E+00
  0.00000000E+00  0.00000000E+00  0.00000000E+00
  0.00000000E+00  0.00000000E+00  0.00000000E+00
  0.00000000E+00  0.00000000E+00  0.00000000E+00
  0.00000000E+00  0.00000000E+00  0.00000000E+00
