# Ag                                    
   1.00000000000000     
     5.8268586200000003    0.0000053700000000   -0.0000333000000000
    -2.9134240299999998    5.0462030999999996    0.0000149100000000
    -0.0001097200000000   -0.0000066500000000   19.3417971900000012
   Mg
    32
Direct
  0.0036579748189212  0.0120722116027778  0.0031965603406192
  0.0036613554010003  0.0120765975699868  0.2531964834370726
  0.1683446903113079  0.3414447584355500  0.1281965729750709
  0.3369899667486423  0.1787463850290683  0.3792306187787795
  0.5036579743235023  0.0120722106119331  0.0031965603406192
  0.5036613549055815  0.0120765965791492  0.2531964834370726
  0.6703263731445332  0.3454081312848061  0.1281965733316142
  0.8369899478172513  0.1787463826755769  0.3781965887036947
  0.0036579739608342  0.5120722116027778  0.0031965605991289
  0.0036613545428992  0.5120765975699939  0.2531964831785629
  0.1703263727818580  0.8454081322756508  0.1281965730731045
  0.3369899474545832  0.6787463836664216  0.3781965889621972
  0.5036579744562530  0.5120722125936226  0.0031965605991289
  0.5036613540474804  0.5120765965791492  0.2531964831785629
  0.6703263732772768  0.8454081332664956  0.1281965730731045
  0.8369899469591644  0.6787463826755840  0.3781965889621972
  0.0036579743235094  0.0120722106119331  0.5031965605991289
  0.0036613549055744  0.0120765965791492  0.7531964831785629
  0.1703263731445332  0.3454081312848061  0.6281965730731045
  0.3369899461010704  0.1787463826755840  0.8781965889621972
  0.5036579748189283  0.0120722116027778  0.5031965605991289
  0.5036613544101627  0.0120765955883044  0.7531964836955822
  0.6703263736399521  0.3454081322756508  0.6281965730731045
  0.8369899483126773  0.1787463836664216  0.8781965889622043
  0.0036579744562459  0.5120722125936226  0.5031965603406192
  0.0036613540474875  0.5120765965791492  0.7531964834370726
  0.1703263732772839  0.8454081332664956  0.6281965733316071
  0.3369899469591715  0.6787463826755840  0.8781965892207069
  0.5036579739608271  0.5120722116027778  0.5031965603406192
  0.5036613545429063  0.5120765975699939  0.7531964834370726
  0.6703263727818580  0.8454081322756508  0.6281965733316071
  0.8369899474545903  0.6787463836664216  0.8781965892207069
 
  0.00000000E+00  0.00000000E+00  0.00000000E+00
  0.00000000E+00  0.00000000E+00  0.00000000E+00
  0.00000000E+00  0.00000000E+00  0.00000000E+00
  0.00000000E+00  0.00000000E+00  0.00000000E+00
  0.00000000E+00  0.00000000E+00  0.00000000E+00
  0.00000000E+00  0.00000000E+00  0.00000000E+00
  0.00000000E+00  0.00000000E+00  0.00000000E+00
  0.00000000E+00  0.00000000E+00  0.00000000E+00
  0.00000000E+00  0.00000000E+00  0.00000000E+00
  0.00000000E+00  0.00000000E+00  0.00000000E+00
  0.00000000E+00  0.00000000E+00  0.00000000E+00
  0.00000000E+00  0.00000000E+00  0.00000000E+00
  0.00000000E+00  0.00000000E+00  0.00000000E+00
  0.00000000E+00  0.00000000E+00  0.00000000E+00
  0.00000000E+00  0.00000000E+00  0.00000000E+00
  0.00000000E+00  0.00000000E+00  0.00000000E+00
  0.00000000E+00  0.00000000E+00  0.00000000E+00
  0.00000000E+00  0.00000000E+00  0.00000000E+00
  0.00000000E+00  0.00000000E+00  0.00000000E+00
  0.00000000E+00  0.00000000E+00  0.00000000E+00
  0.00000000E+00  0.00000000E+00  0.00000000E+00
  0.00000000E+00  0.00000000E+00  0.00000000E+00
  0.00000000E+00  0.00000000E+00  0.00000000E+00
  0.00000000E+00  0.00000000E+00  0.00000000E+00
  0.00000000E+00  0.00000000E+00  0.00000000E+00
  0.00000000E+00  0.00000000E+00  0.00000000E+00
  0.00000000E+00  0.00000000E+00  0.00000000E+00
  0.00000000E+00  0.00000000E+00  0.00000000E+00
  0.00000000E+00  0.00000000E+00  0.00000000E+00
  0.00000000E+00  0.00000000E+00  0.00000000E+00
  0.00000000E+00  0.00000000E+00  0.00000000E+00
  0.00000000E+00  0.00000000E+00  0.00000000E+00
